output_file = "7-1-E-100-1.20-235.csv";

n_days = 100;
n_shelves = 7;
n_crops = 1;

crop_shelf_compatible = [
    [1, 1, 1, 1, 1, 1, 1]
];

crop_growth_days = [35];

n_configurations = 4;

crop_growth_day_config = [
    [1, 1, 1, 1, 1, 1, 1, 2, 2, 2, 2, 2, 2, 2, 2, 2, 2, 3, 3, 3, 3, 3, 3, 3, 3, 3, 3, 3, 3, 3, 3, 4, 4, 4, 4]
];

capacity = [
    [12, 12, 12, 12],
[12, 12, 12, 12],
[12, 12, 12, 12],
[12, 12, 12, 12],
[12, 12, 12, 12],
[12, 12, 12, 12],
[12, 12, 12, 12]
];

demand = [
    [0, 0, 0, 0, 0, 0, 0, 0, 0, 0, 0, 0, 0, 0, 0, 0, 0, 0, 0, 0, 0, 0, 0, 0, 0, 0, 0, 0, 0, 0, 0, 0, 0, 0, 0, 4, 0, 3, 13, 0, 0, 3, 6, 0, 0, 12, 0, 0, 0, 1, 0, 0, 0, 0, 0, 0, 4, 0, 0, 0, 4, 10, 3, 0, 0, 0, 0, 0, 0, 0, 4, 6, 0, 0, 12, 0, 2, 0, 2, 7, 0, 0, 0, 0, 0, 4, 0, 0, 0, 7, 3, 0, 0, 0, 0, 0, 0, 0, 6, 2]
];
